p tw 256 3840
0 1
0 2
0 3
0 4
0 5
0 6
0 7
0 8
0 9
0 10
0 11
0 12
0 13
0 14
0 15
0 38
0 86
0 98
0 125
0 159
0 179
0 184
0 185
0 186
0 187
0 188
0 189
0 190
0 191
0 192
1 2
1 3
1 4
1 5
1 6
1 7
1 8
1 9
1 10
1 11
1 12
1 13
1 14
1 15
1 43
1 46
1 47
1 48
1 49
1 50
1 51
1 52
1 53
1 54
1 55
1 56
1 57
1 58
1 59
2 3
2 4
2 5
2 6
2 7
2 8
2 9
2 10
2 11
2 12
2 13
2 14
2 15
2 44
2 81
2 88
2 131
2 160
2 176
2 199
2 206
2 225
2 233
2 236
2 244
2 245
2 246
2 247
3 4
3 5
3 6
3 7
3 8
3 9
3 10
3 11
3 12
3 13
3 14
3 15
3 45
3 78
3 90
3 132
3 161
3 166
3 167
3 168
3 169
3 170
3 171
3 172
3 173
3 174
3 175
4 5
4 6
4 7
4 8
4 9
4 10
4 11
4 12
4 13
4 14
4 15
4 37
4 60
4 61
4 62
4 63
4 64
4 65
4 66
4 67
4 68
4 69
4 70
4 71
4 72
4 73
5 6
5 7
5 8
5 9
5 10
5 11
5 12
5 13
5 14
5 15
5 39
5 84
5 99
5 126
5 135
5 136
5 137
5 138
5 139
5 140
5 141
5 142
5 143
5 144
5 145
6 7
6 8
6 9
6 10
6 11
6 12
6 13
6 14
6 15
6 40
6 85
6 93
6 127
6 157
6 178
6 197
6 200
6 223
6 234
6 238
6 248
6 253
6 254
6 255
7 8
7 9
7 10
7 11
7 12
7 13
7 14
7 15
7 41
7 82
7 94
7 128
7 158
7 177
7 198
7 202
7 222
7 235
7 239
7 240
7 241
7 242
7 243
8 9
8 10
8 11
8 12
8 13
8 14
8 15
8 31
8 80
8 87
8 130
8 165
8 180
8 195
8 204
8 221
8 232
8 237
8 249
8 250
8 251
8 252
9 10
9 11
9 12
9 13
9 14
9 15
9 42
9 83
9 92
9 129
9 146
9 147
9 148
9 149
9 150
9 151
9 152
9 153
9 154
9 155
9 156
10 11
10 12
10 13
10 14
10 15
10 36
10 79
10 89
10 134
10 163
10 181
10 196
10 205
10 207
10 208
10 209
10 210
10 211
10 212
10 213
11 12
11 13
11 14
11 15
11 35
11 77
11 91
11 100
11 101
11 102
11 103
11 104
11 105
11 106
11 107
11 108
11 109
11 110
11 111
12 13
12 14
12 15
12 34
12 76
12 95
12 112
12 113
12 114
12 115
12 116
12 117
12 118
12 119
12 120
12 121
12 122
12 123
13 14
13 15
13 33
13 75
13 96
13 133
13 162
13 182
13 193
13 201
13 214
13 215
13 216
13 217
13 218
13 219
13 220
14 15
14 32
14 74
14 97
14 124
14 164
14 183
14 194
14 203
14 224
14 226
14 227
14 228
14 229
14 230
14 231
15 16
15 17
15 18
15 19
15 20
15 21
15 22
15 23
15 24
15 25
15 26
15 27
15 28
15 29
15 30
16 17
16 18
16 19
16 20
16 21
16 22
16 23
16 24
16 25
16 26
16 27
16 28
16 29
16 30
16 47
16 60
16 87
16 88
16 89
16 90
16 91
16 92
16 93
16 94
16 95
16 96
16 97
16 98
16 99
17 18
17 19
17 20
17 21
17 22
17 23
17 24
17 25
17 26
17 27
17 28
17 29
17 30
17 48
17 61
17 102
17 120
17 140
17 149
17 166
17 187
17 208
17 219
17 229
17 240
17 244
17 250
17 254
18 19
18 20
18 21
18 22
18 23
18 24
18 25
18 26
18 27
18 28
18 29
18 30
18 51
18 64
18 105
18 117
18 141
18 150
18 168
18 189
18 211
18 217
18 228
18 241
18 245
18 251
18 253
19 20
19 21
19 22
19 23
19 24
19 25
19 26
19 27
19 28
19 29
19 30
19 56
19 68
19 101
19 112
19 143
19 151
19 171
19 191
19 210
19 215
19 226
19 242
19 247
19 248
19 249
20 21
20 22
20 23
20 24
20 25
20 26
20 27
20 28
20 29
20 30
20 49
20 63
20 104
20 116
20 136
20 148
20 157
20 158
20 159
20 160
20 161
20 162
20 163
20 164
20 165
21 22
21 23
21 24
21 25
21 26
21 27
21 28
21 29
21 30
21 46
21 65
21 108
21 119
21 137
21 146
21 169
21 176
21 177
21 178
21 179
21 180
21 181
21 182
21 183
22 23
22 24
22 25
22 26
22 27
22 28
22 29
22 30
22 50
22 62
22 100
22 113
22 138
22 147
22 167
22 184
22 207
22 214
22 221
22 222
22 223
22 224
22 225
23 24
23 25
23 26
23 27
23 28
23 29
23 30
23 53
23 67
23 74
23 75
23 76
23 77
23 78
23 79
23 80
23 81
23 82
23 83
23 84
23 85
23 86
24 25
24 26
24 27
24 28
24 29
24 30
24 31
24 32
24 33
24 34
24 35
24 36
24 37
24 38
24 39
24 40
24 41
24 42
24 43
24 44
24 45
25 26
25 27
25 28
25 29
25 30
25 54
25 66
25 111
25 123
25 139
25 154
25 170
25 186
25 213
25 216
25 227
25 243
25 246
25 252
25 255
26 27
26 28
26 29
26 30
26 58
26 69
26 109
26 122
26 145
26 155
26 172
26 192
26 212
26 220
26 231
26 236
26 237
26 238
26 239
27 28
27 29
27 30
27 55
27 70
27 103
27 114
27 142
27 153
27 173
27 188
27 193
27 194
27 195
27 196
27 197
27 198
27 199
28 29
28 30
28 59
28 71
28 107
28 118
28 135
28 156
28 174
28 185
28 209
28 218
28 230
28 232
28 233
28 234
28 235
29 30
29 57
29 72
29 110
29 121
29 124
29 125
29 126
29 127
29 128
29 129
29 130
29 131
29 132
29 133
29 134
30 52
30 73
30 106
30 115
30 144
30 152
30 175
30 190
30 200
30 201
30 202
30 203
30 204
30 205
30 206
31 32
31 33
31 34
31 35
31 36
31 37
31 38
31 39
31 40
31 41
31 42
31 43
31 44
31 45
31 80
31 87
31 130
31 165
31 180
31 195
31 204
31 221
31 232
31 237
31 249
31 250
31 251
31 252
32 33
32 34
32 35
32 36
32 37
32 38
32 39
32 40
32 41
32 42
32 43
32 44
32 45
32 74
32 97
32 124
32 164
32 183
32 194
32 203
32 224
32 226
32 227
32 228
32 229
32 230
32 231
33 34
33 35
33 36
33 37
33 38
33 39
33 40
33 41
33 42
33 43
33 44
33 45
33 75
33 96
33 133
33 162
33 182
33 193
33 201
33 214
33 215
33 216
33 217
33 218
33 219
33 220
34 35
34 36
34 37
34 38
34 39
34 40
34 41
34 42
34 43
34 44
34 45
34 76
34 95
34 112
34 113
34 114
34 115
34 116
34 117
34 118
34 119
34 120
34 121
34 122
34 123
35 36
35 37
35 38
35 39
35 40
35 41
35 42
35 43
35 44
35 45
35 77
35 91
35 100
35 101
35 102
35 103
35 104
35 105
35 106
35 107
35 108
35 109
35 110
35 111
36 37
36 38
36 39
36 40
36 41
36 42
36 43
36 44
36 45
36 79
36 89
36 134
36 163
36 181
36 196
36 205
36 207
36 208
36 209
36 210
36 211
36 212
36 213
37 38
37 39
37 40
37 41
37 42
37 43
37 44
37 45
37 60
37 61
37 62
37 63
37 64
37 65
37 66
37 67
37 68
37 69
37 70
37 71
37 72
37 73
38 39
38 40
38 41
38 42
38 43
38 44
38 45
38 86
38 98
38 125
38 159
38 179
38 184
38 185
38 186
38 187
38 188
38 189
38 190
38 191
38 192
39 40
39 41
39 42
39 43
39 44
39 45
39 84
39 99
39 126
39 135
39 136
39 137
39 138
39 139
39 140
39 141
39 142
39 143
39 144
39 145
40 41
40 42
40 43
40 44
40 45
40 85
40 93
40 127
40 157
40 178
40 197
40 200
40 223
40 234
40 238
40 248
40 253
40 254
40 255
41 42
41 43
41 44
41 45
41 82
41 94
41 128
41 158
41 177
41 198
41 202
41 222
41 235
41 239
41 240
41 241
41 242
41 243
42 43
42 44
42 45
42 83
42 92
42 129
42 146
42 147
42 148
42 149
42 150
42 151
42 152
42 153
42 154
42 155
42 156
43 44
43 45
43 46
43 47
43 48
43 49
43 50
43 51
43 52
43 53
43 54
43 55
43 56
43 57
43 58
43 59
44 45
44 81
44 88
44 131
44 160
44 176
44 199
44 206
44 225
44 233
44 236
44 244
44 245
44 246
44 247
45 78
45 90
45 132
45 161
45 166
45 167
45 168
45 169
45 170
45 171
45 172
45 173
45 174
45 175
46 47
46 48
46 49
46 50
46 51
46 52
46 53
46 54
46 55
46 56
46 57
46 58
46 59
46 65
46 108
46 119
46 137
46 146
46 169
46 176
46 177
46 178
46 179
46 180
46 181
46 182
46 183
47 48
47 49
47 50
47 51
47 52
47 53
47 54
47 55
47 56
47 57
47 58
47 59
47 60
47 87
47 88
47 89
47 90
47 91
47 92
47 93
47 94
47 95
47 96
47 97
47 98
47 99
48 49
48 50
48 51
48 52
48 53
48 54
48 55
48 56
48 57
48 58
48 59
48 61
48 102
48 120
48 140
48 149
48 166
48 187
48 208
48 219
48 229
48 240
48 244
48 250
48 254
49 50
49 51
49 52
49 53
49 54
49 55
49 56
49 57
49 58
49 59
49 63
49 104
49 116
49 136
49 148
49 157
49 158
49 159
49 160
49 161
49 162
49 163
49 164
49 165
50 51
50 52
50 53
50 54
50 55
50 56
50 57
50 58
50 59
50 62
50 100
50 113
50 138
50 147
50 167
50 184
50 207
50 214
50 221
50 222
50 223
50 224
50 225
51 52
51 53
51 54
51 55
51 56
51 57
51 58
51 59
51 64
51 105
51 117
51 141
51 150
51 168
51 189
51 211
51 217
51 228
51 241
51 245
51 251
51 253
52 53
52 54
52 55
52 56
52 57
52 58
52 59
52 73
52 106
52 115
52 144
52 152
52 175
52 190
52 200
52 201
52 202
52 203
52 204
52 205
52 206
53 54
53 55
53 56
53 57
53 58
53 59
53 67
53 74
53 75
53 76
53 77
53 78
53 79
53 80
53 81
53 82
53 83
53 84
53 85
53 86
54 55
54 56
54 57
54 58
54 59
54 66
54 111
54 123
54 139
54 154
54 170
54 186
54 213
54 216
54 227
54 243
54 246
54 252
54 255
55 56
55 57
55 58
55 59
55 70
55 103
55 114
55 142
55 153
55 173
55 188
55 193
55 194
55 195
55 196
55 197
55 198
55 199
56 57
56 58
56 59
56 68
56 101
56 112
56 143
56 151
56 171
56 191
56 210
56 215
56 226
56 242
56 247
56 248
56 249
57 58
57 59
57 72
57 110
57 121
57 124
57 125
57 126
57 127
57 128
57 129
57 130
57 131
57 132
57 133
57 134
58 59
58 69
58 109
58 122
58 145
58 155
58 172
58 192
58 212
58 220
58 231
58 236
58 237
58 238
58 239
59 71
59 107
59 118
59 135
59 156
59 174
59 185
59 209
59 218
59 230
59 232
59 233
59 234
59 235
60 61
60 62
60 63
60 64
60 65
60 66
60 67
60 68
60 69
60 70
60 71
60 72
60 73
60 87
60 88
60 89
60 90
60 91
60 92
60 93
60 94
60 95
60 96
60 97
60 98
60 99
61 62
61 63
61 64
61 65
61 66
61 67
61 68
61 69
61 70
61 71
61 72
61 73
61 102
61 120
61 140
61 149
61 166
61 187
61 208
61 219
61 229
61 240
61 244
61 250
61 254
62 63
62 64
62 65
62 66
62 67
62 68
62 69
62 70
62 71
62 72
62 73
62 100
62 113
62 138
62 147
62 167
62 184
62 207
62 214
62 221
62 222
62 223
62 224
62 225
63 64
63 65
63 66
63 67
63 68
63 69
63 70
63 71
63 72
63 73
63 104
63 116
63 136
63 148
63 157
63 158
63 159
63 160
63 161
63 162
63 163
63 164
63 165
64 65
64 66
64 67
64 68
64 69
64 70
64 71
64 72
64 73
64 105
64 117
64 141
64 150
64 168
64 189
64 211
64 217
64 228
64 241
64 245
64 251
64 253
65 66
65 67
65 68
65 69
65 70
65 71
65 72
65 73
65 108
65 119
65 137
65 146
65 169
65 176
65 177
65 178
65 179
65 180
65 181
65 182
65 183
66 67
66 68
66 69
66 70
66 71
66 72
66 73
66 111
66 123
66 139
66 154
66 170
66 186
66 213
66 216
66 227
66 243
66 246
66 252
66 255
67 68
67 69
67 70
67 71
67 72
67 73
67 74
67 75
67 76
67 77
67 78
67 79
67 80
67 81
67 82
67 83
67 84
67 85
67 86
68 69
68 70
68 71
68 72
68 73
68 101
68 112
68 143
68 151
68 171
68 191
68 210
68 215
68 226
68 242
68 247
68 248
68 249
69 70
69 71
69 72
69 73
69 109
69 122
69 145
69 155
69 172
69 192
69 212
69 220
69 231
69 236
69 237
69 238
69 239
70 71
70 72
70 73
70 103
70 114
70 142
70 153
70 173
70 188
70 193
70 194
70 195
70 196
70 197
70 198
70 199
71 72
71 73
71 107
71 118
71 135
71 156
71 174
71 185
71 209
71 218
71 230
71 232
71 233
71 234
71 235
72 73
72 110
72 121
72 124
72 125
72 126
72 127
72 128
72 129
72 130
72 131
72 132
72 133
72 134
73 106
73 115
73 144
73 152
73 175
73 190
73 200
73 201
73 202
73 203
73 204
73 205
73 206
74 75
74 76
74 77
74 78
74 79
74 80
74 81
74 82
74 83
74 84
74 85
74 86
74 97
74 124
74 164
74 183
74 194
74 203
74 224
74 226
74 227
74 228
74 229
74 230
74 231
75 76
75 77
75 78
75 79
75 80
75 81
75 82
75 83
75 84
75 85
75 86
75 96
75 133
75 162
75 182
75 193
75 201
75 214
75 215
75 216
75 217
75 218
75 219
75 220
76 77
76 78
76 79
76 80
76 81
76 82
76 83
76 84
76 85
76 86
76 95
76 112
76 113
76 114
76 115
76 116
76 117
76 118
76 119
76 120
76 121
76 122
76 123
77 78
77 79
77 80
77 81
77 82
77 83
77 84
77 85
77 86
77 91
77 100
77 101
77 102
77 103
77 104
77 105
77 106
77 107
77 108
77 109
77 110
77 111
78 79
78 80
78 81
78 82
78 83
78 84
78 85
78 86
78 90
78 132
78 161
78 166
78 167
78 168
78 169
78 170
78 171
78 172
78 173
78 174
78 175
79 80
79 81
79 82
79 83
79 84
79 85
79 86
79 89
79 134
79 163
79 181
79 196
79 205
79 207
79 208
79 209
79 210
79 211
79 212
79 213
80 81
80 82
80 83
80 84
80 85
80 86
80 87
80 130
80 165
80 180
80 195
80 204
80 221
80 232
80 237
80 249
80 250
80 251
80 252
81 82
81 83
81 84
81 85
81 86
81 88
81 131
81 160
81 176
81 199
81 206
81 225
81 233
81 236
81 244
81 245
81 246
81 247
82 83
82 84
82 85
82 86
82 94
82 128
82 158
82 177
82 198
82 202
82 222
82 235
82 239
82 240
82 241
82 242
82 243
83 84
83 85
83 86
83 92
83 129
83 146
83 147
83 148
83 149
83 150
83 151
83 152
83 153
83 154
83 155
83 156
84 85
84 86
84 99
84 126
84 135
84 136
84 137
84 138
84 139
84 140
84 141
84 142
84 143
84 144
84 145
85 86
85 93
85 127
85 157
85 178
85 197
85 200
85 223
85 234
85 238
85 248
85 253
85 254
85 255
86 98
86 125
86 159
86 179
86 184
86 185
86 186
86 187
86 188
86 189
86 190
86 191
86 192
87 88
87 89
87 90
87 91
87 92
87 93
87 94
87 95
87 96
87 97
87 98
87 99
87 130
87 165
87 180
87 195
87 204
87 221
87 232
87 237
87 249
87 250
87 251
87 252
88 89
88 90
88 91
88 92
88 93
88 94
88 95
88 96
88 97
88 98
88 99
88 131
88 160
88 176
88 199
88 206
88 225
88 233
88 236
88 244
88 245
88 246
88 247
89 90
89 91
89 92
89 93
89 94
89 95
89 96
89 97
89 98
89 99
89 134
89 163
89 181
89 196
89 205
89 207
89 208
89 209
89 210
89 211
89 212
89 213
90 91
90 92
90 93
90 94
90 95
90 96
90 97
90 98
90 99
90 132
90 161
90 166
90 167
90 168
90 169
90 170
90 171
90 172
90 173
90 174
90 175
91 92
91 93
91 94
91 95
91 96
91 97
91 98
91 99
91 100
91 101
91 102
91 103
91 104
91 105
91 106
91 107
91 108
91 109
91 110
91 111
92 93
92 94
92 95
92 96
92 97
92 98
92 99
92 129
92 146
92 147
92 148
92 149
92 150
92 151
92 152
92 153
92 154
92 155
92 156
93 94
93 95
93 96
93 97
93 98
93 99
93 127
93 157
93 178
93 197
93 200
93 223
93 234
93 238
93 248
93 253
93 254
93 255
94 95
94 96
94 97
94 98
94 99
94 128
94 158
94 177
94 198
94 202
94 222
94 235
94 239
94 240
94 241
94 242
94 243
95 96
95 97
95 98
95 99
95 112
95 113
95 114
95 115
95 116
95 117
95 118
95 119
95 120
95 121
95 122
95 123
96 97
96 98
96 99
96 133
96 162
96 182
96 193
96 201
96 214
96 215
96 216
96 217
96 218
96 219
96 220
97 98
97 99
97 124
97 164
97 183
97 194
97 203
97 224
97 226
97 227
97 228
97 229
97 230
97 231
98 99
98 125
98 159
98 179
98 184
98 185
98 186
98 187
98 188
98 189
98 190
98 191
98 192
99 126
99 135
99 136
99 137
99 138
99 139
99 140
99 141
99 142
99 143
99 144
99 145
100 101
100 102
100 103
100 104
100 105
100 106
100 107
100 108
100 109
100 110
100 111
100 113
100 138
100 147
100 167
100 184
100 207
100 214
100 221
100 222
100 223
100 224
100 225
101 102
101 103
101 104
101 105
101 106
101 107
101 108
101 109
101 110
101 111
101 112
101 143
101 151
101 171
101 191
101 210
101 215
101 226
101 242
101 247
101 248
101 249
102 103
102 104
102 105
102 106
102 107
102 108
102 109
102 110
102 111
102 120
102 140
102 149
102 166
102 187
102 208
102 219
102 229
102 240
102 244
102 250
102 254
103 104
103 105
103 106
103 107
103 108
103 109
103 110
103 111
103 114
103 142
103 153
103 173
103 188
103 193
103 194
103 195
103 196
103 197
103 198
103 199
104 105
104 106
104 107
104 108
104 109
104 110
104 111
104 116
104 136
104 148
104 157
104 158
104 159
104 160
104 161
104 162
104 163
104 164
104 165
105 106
105 107
105 108
105 109
105 110
105 111
105 117
105 141
105 150
105 168
105 189
105 211
105 217
105 228
105 241
105 245
105 251
105 253
106 107
106 108
106 109
106 110
106 111
106 115
106 144
106 152
106 175
106 190
106 200
106 201
106 202
106 203
106 204
106 205
106 206
107 108
107 109
107 110
107 111
107 118
107 135
107 156
107 174
107 185
107 209
107 218
107 230
107 232
107 233
107 234
107 235
108 109
108 110
108 111
108 119
108 137
108 146
108 169
108 176
108 177
108 178
108 179
108 180
108 181
108 182
108 183
109 110
109 111
109 122
109 145
109 155
109 172
109 192
109 212
109 220
109 231
109 236
109 237
109 238
109 239
110 111
110 121
110 124
110 125
110 126
110 127
110 128
110 129
110 130
110 131
110 132
110 133
110 134
111 123
111 139
111 154
111 170
111 186
111 213
111 216
111 227
111 243
111 246
111 252
111 255
112 113
112 114
112 115
112 116
112 117
112 118
112 119
112 120
112 121
112 122
112 123
112 143
112 151
112 171
112 191
112 210
112 215
112 226
112 242
112 247
112 248
112 249
113 114
113 115
113 116
113 117
113 118
113 119
113 120
113 121
113 122
113 123
113 138
113 147
113 167
113 184
113 207
113 214
113 221
113 222
113 223
113 224
113 225
114 115
114 116
114 117
114 118
114 119
114 120
114 121
114 122
114 123
114 142
114 153
114 173
114 188
114 193
114 194
114 195
114 196
114 197
114 198
114 199
115 116
115 117
115 118
115 119
115 120
115 121
115 122
115 123
115 144
115 152
115 175
115 190
115 200
115 201
115 202
115 203
115 204
115 205
115 206
116 117
116 118
116 119
116 120
116 121
116 122
116 123
116 136
116 148
116 157
116 158
116 159
116 160
116 161
116 162
116 163
116 164
116 165
117 118
117 119
117 120
117 121
117 122
117 123
117 141
117 150
117 168
117 189
117 211
117 217
117 228
117 241
117 245
117 251
117 253
118 119
118 120
118 121
118 122
118 123
118 135
118 156
118 174
118 185
118 209
118 218
118 230
118 232
118 233
118 234
118 235
119 120
119 121
119 122
119 123
119 137
119 146
119 169
119 176
119 177
119 178
119 179
119 180
119 181
119 182
119 183
120 121
120 122
120 123
120 140
120 149
120 166
120 187
120 208
120 219
120 229
120 240
120 244
120 250
120 254
121 122
121 123
121 124
121 125
121 126
121 127
121 128
121 129
121 130
121 131
121 132
121 133
121 134
122 123
122 145
122 155
122 172
122 192
122 212
122 220
122 231
122 236
122 237
122 238
122 239
123 139
123 154
123 170
123 186
123 213
123 216
123 227
123 243
123 246
123 252
123 255
124 125
124 126
124 127
124 128
124 129
124 130
124 131
124 132
124 133
124 134
124 164
124 183
124 194
124 203
124 224
124 226
124 227
124 228
124 229
124 230
124 231
125 126
125 127
125 128
125 129
125 130
125 131
125 132
125 133
125 134
125 159
125 179
125 184
125 185
125 186
125 187
125 188
125 189
125 190
125 191
125 192
126 127
126 128
126 129
126 130
126 131
126 132
126 133
126 134
126 135
126 136
126 137
126 138
126 139
126 140
126 141
126 142
126 143
126 144
126 145
127 128
127 129
127 130
127 131
127 132
127 133
127 134
127 157
127 178
127 197
127 200
127 223
127 234
127 238
127 248
127 253
127 254
127 255
128 129
128 130
128 131
128 132
128 133
128 134
128 158
128 177
128 198
128 202
128 222
128 235
128 239
128 240
128 241
128 242
128 243
129 130
129 131
129 132
129 133
129 134
129 146
129 147
129 148
129 149
129 150
129 151
129 152
129 153
129 154
129 155
129 156
130 131
130 132
130 133
130 134
130 165
130 180
130 195
130 204
130 221
130 232
130 237
130 249
130 250
130 251
130 252
131 132
131 133
131 134
131 160
131 176
131 199
131 206
131 225
131 233
131 236
131 244
131 245
131 246
131 247
132 133
132 134
132 161
132 166
132 167
132 168
132 169
132 170
132 171
132 172
132 173
132 174
132 175
133 134
133 162
133 182
133 193
133 201
133 214
133 215
133 216
133 217
133 218
133 219
133 220
134 163
134 181
134 196
134 205
134 207
134 208
134 209
134 210
134 211
134 212
134 213
135 136
135 137
135 138
135 139
135 140
135 141
135 142
135 143
135 144
135 145
135 156
135 174
135 185
135 209
135 218
135 230
135 232
135 233
135 234
135 235
136 137
136 138
136 139
136 140
136 141
136 142
136 143
136 144
136 145
136 148
136 157
136 158
136 159
136 160
136 161
136 162
136 163
136 164
136 165
137 138
137 139
137 140
137 141
137 142
137 143
137 144
137 145
137 146
137 169
137 176
137 177
137 178
137 179
137 180
137 181
137 182
137 183
138 139
138 140
138 141
138 142
138 143
138 144
138 145
138 147
138 167
138 184
138 207
138 214
138 221
138 222
138 223
138 224
138 225
139 140
139 141
139 142
139 143
139 144
139 145
139 154
139 170
139 186
139 213
139 216
139 227
139 243
139 246
139 252
139 255
140 141
140 142
140 143
140 144
140 145
140 149
140 166
140 187
140 208
140 219
140 229
140 240
140 244
140 250
140 254
141 142
141 143
141 144
141 145
141 150
141 168
141 189
141 211
141 217
141 228
141 241
141 245
141 251
141 253
142 143
142 144
142 145
142 153
142 173
142 188
142 193
142 194
142 195
142 196
142 197
142 198
142 199
143 144
143 145
143 151
143 171
143 191
143 210
143 215
143 226
143 242
143 247
143 248
143 249
144 145
144 152
144 175
144 190
144 200
144 201
144 202
144 203
144 204
144 205
144 206
145 155
145 172
145 192
145 212
145 220
145 231
145 236
145 237
145 238
145 239
146 147
146 148
146 149
146 150
146 151
146 152
146 153
146 154
146 155
146 156
146 169
146 176
146 177
146 178
146 179
146 180
146 181
146 182
146 183
147 148
147 149
147 150
147 151
147 152
147 153
147 154
147 155
147 156
147 167
147 184
147 207
147 214
147 221
147 222
147 223
147 224
147 225
148 149
148 150
148 151
148 152
148 153
148 154
148 155
148 156
148 157
148 158
148 159
148 160
148 161
148 162
148 163
148 164
148 165
149 150
149 151
149 152
149 153
149 154
149 155
149 156
149 166
149 187
149 208
149 219
149 229
149 240
149 244
149 250
149 254
150 151
150 152
150 153
150 154
150 155
150 156
150 168
150 189
150 211
150 217
150 228
150 241
150 245
150 251
150 253
151 152
151 153
151 154
151 155
151 156
151 171
151 191
151 210
151 215
151 226
151 242
151 247
151 248
151 249
152 153
152 154
152 155
152 156
152 175
152 190
152 200
152 201
152 202
152 203
152 204
152 205
152 206
153 154
153 155
153 156
153 173
153 188
153 193
153 194
153 195
153 196
153 197
153 198
153 199
154 155
154 156
154 170
154 186
154 213
154 216
154 227
154 243
154 246
154 252
154 255
155 156
155 172
155 192
155 212
155 220
155 231
155 236
155 237
155 238
155 239
156 174
156 185
156 209
156 218
156 230
156 232
156 233
156 234
156 235
157 158
157 159
157 160
157 161
157 162
157 163
157 164
157 165
157 178
157 197
157 200
157 223
157 234
157 238
157 248
157 253
157 254
157 255
158 159
158 160
158 161
158 162
158 163
158 164
158 165
158 177
158 198
158 202
158 222
158 235
158 239
158 240
158 241
158 242
158 243
159 160
159 161
159 162
159 163
159 164
159 165
159 179
159 184
159 185
159 186
159 187
159 188
159 189
159 190
159 191
159 192
160 161
160 162
160 163
160 164
160 165
160 176
160 199
160 206
160 225
160 233
160 236
160 244
160 245
160 246
160 247
161 162
161 163
161 164
161 165
161 166
161 167
161 168
161 169
161 170
161 171
161 172
161 173
161 174
161 175
162 163
162 164
162 165
162 182
162 193
162 201
162 214
162 215
162 216
162 217
162 218
162 219
162 220
163 164
163 165
163 181
163 196
163 205
163 207
163 208
163 209
163 210
163 211
163 212
163 213
164 165
164 183
164 194
164 203
164 224
164 226
164 227
164 228
164 229
164 230
164 231
165 180
165 195
165 204
165 221
165 232
165 237
165 249
165 250
165 251
165 252
166 167
166 168
166 169
166 170
166 171
166 172
166 173
166 174
166 175
166 187
166 208
166 219
166 229
166 240
166 244
166 250
166 254
167 168
167 169
167 170
167 171
167 172
167 173
167 174
167 175
167 184
167 207
167 214
167 221
167 222
167 223
167 224
167 225
168 169
168 170
168 171
168 172
168 173
168 174
168 175
168 189
168 211
168 217
168 228
168 241
168 245
168 251
168 253
169 170
169 171
169 172
169 173
169 174
169 175
169 176
169 177
169 178
169 179
169 180
169 181
169 182
169 183
170 171
170 172
170 173
170 174
170 175
170 186
170 213
170 216
170 227
170 243
170 246
170 252
170 255
171 172
171 173
171 174
171 175
171 191
171 210
171 215
171 226
171 242
171 247
171 248
171 249
172 173
172 174
172 175
172 192
172 212
172 220
172 231
172 236
172 237
172 238
172 239
173 174
173 175
173 188
173 193
173 194
173 195
173 196
173 197
173 198
173 199
174 175
174 185
174 209
174 218
174 230
174 232
174 233
174 234
174 235
175 190
175 200
175 201
175 202
175 203
175 204
175 205
175 206
176 177
176 178
176 179
176 180
176 181
176 182
176 183
176 199
176 206
176 225
176 233
176 236
176 244
176 245
176 246
176 247
177 178
177 179
177 180
177 181
177 182
177 183
177 198
177 202
177 222
177 235
177 239
177 240
177 241
177 242
177 243
178 179
178 180
178 181
178 182
178 183
178 197
178 200
178 223
178 234
178 238
178 248
178 253
178 254
178 255
179 180
179 181
179 182
179 183
179 184
179 185
179 186
179 187
179 188
179 189
179 190
179 191
179 192
180 181
180 182
180 183
180 195
180 204
180 221
180 232
180 237
180 249
180 250
180 251
180 252
181 182
181 183
181 196
181 205
181 207
181 208
181 209
181 210
181 211
181 212
181 213
182 183
182 193
182 201
182 214
182 215
182 216
182 217
182 218
182 219
182 220
183 194
183 203
183 224
183 226
183 227
183 228
183 229
183 230
183 231
184 185
184 186
184 187
184 188
184 189
184 190
184 191
184 192
184 207
184 214
184 221
184 222
184 223
184 224
184 225
185 186
185 187
185 188
185 189
185 190
185 191
185 192
185 209
185 218
185 230
185 232
185 233
185 234
185 235
186 187
186 188
186 189
186 190
186 191
186 192
186 213
186 216
186 227
186 243
186 246
186 252
186 255
187 188
187 189
187 190
187 191
187 192
187 208
187 219
187 229
187 240
187 244
187 250
187 254
188 189
188 190
188 191
188 192
188 193
188 194
188 195
188 196
188 197
188 198
188 199
189 190
189 191
189 192
189 211
189 217
189 228
189 241
189 245
189 251
189 253
190 191
190 192
190 200
190 201
190 202
190 203
190 204
190 205
190 206
191 192
191 210
191 215
191 226
191 242
191 247
191 248
191 249
192 212
192 220
192 231
192 236
192 237
192 238
192 239
193 194
193 195
193 196
193 197
193 198
193 199
193 201
193 214
193 215
193 216
193 217
193 218
193 219
193 220
194 195
194 196
194 197
194 198
194 199
194 203
194 224
194 226
194 227
194 228
194 229
194 230
194 231
195 196
195 197
195 198
195 199
195 204
195 221
195 232
195 237
195 249
195 250
195 251
195 252
196 197
196 198
196 199
196 205
196 207
196 208
196 209
196 210
196 211
196 212
196 213
197 198
197 199
197 200
197 223
197 234
197 238
197 248
197 253
197 254
197 255
198 199
198 202
198 222
198 235
198 239
198 240
198 241
198 242
198 243
199 206
199 225
199 233
199 236
199 244
199 245
199 246
199 247
200 201
200 202
200 203
200 204
200 205
200 206
200 223
200 234
200 238
200 248
200 253
200 254
200 255
201 202
201 203
201 204
201 205
201 206
201 214
201 215
201 216
201 217
201 218
201 219
201 220
202 203
202 204
202 205
202 206
202 222
202 235
202 239
202 240
202 241
202 242
202 243
203 204
203 205
203 206
203 224
203 226
203 227
203 228
203 229
203 230
203 231
204 205
204 206
204 221
204 232
204 237
204 249
204 250
204 251
204 252
205 206
205 207
205 208
205 209
205 210
205 211
205 212
205 213
206 225
206 233
206 236
206 244
206 245
206 246
206 247
207 208
207 209
207 210
207 211
207 212
207 213
207 214
207 221
207 222
207 223
207 224
207 225
208 209
208 210
208 211
208 212
208 213
208 219
208 229
208 240
208 244
208 250
208 254
209 210
209 211
209 212
209 213
209 218
209 230
209 232
209 233
209 234
209 235
210 211
210 212
210 213
210 215
210 226
210 242
210 247
210 248
210 249
211 212
211 213
211 217
211 228
211 241
211 245
211 251
211 253
212 213
212 220
212 231
212 236
212 237
212 238
212 239
213 216
213 227
213 243
213 246
213 252
213 255
214 215
214 216
214 217
214 218
214 219
214 220
214 221
214 222
214 223
214 224
214 225
215 216
215 217
215 218
215 219
215 220
215 226
215 242
215 247
215 248
215 249
216 217
216 218
216 219
216 220
216 227
216 243
216 246
216 252
216 255
217 218
217 219
217 220
217 228
217 241
217 245
217 251
217 253
218 219
218 220
218 230
218 232
218 233
218 234
218 235
219 220
219 229
219 240
219 244
219 250
219 254
220 231
220 236
220 237
220 238
220 239
221 222
221 223
221 224
221 225
221 232
221 237
221 249
221 250
221 251
221 252
222 223
222 224
222 225
222 235
222 239
222 240
222 241
222 242
222 243
223 224
223 225
223 234
223 238
223 248
223 253
223 254
223 255
224 225
224 226
224 227
224 228
224 229
224 230
224 231
225 233
225 236
225 244
225 245
225 246
225 247
226 227
226 228
226 229
226 230
226 231
226 242
226 247
226 248
226 249
227 228
227 229
227 230
227 231
227 243
227 246
227 252
227 255
228 229
228 230
228 231
228 241
228 245
228 251
228 253
229 230
229 231
229 240
229 244
229 250
229 254
230 231
230 232
230 233
230 234
230 235
231 236
231 237
231 238
231 239
232 233
232 234
232 235
232 237
232 249
232 250
232 251
232 252
233 234
233 235
233 236
233 244
233 245
233 246
233 247
234 235
234 238
234 248
234 253
234 254
234 255
235 239
235 240
235 241
235 242
235 243
236 237
236 238
236 239
236 244
236 245
236 246
236 247
237 238
237 239
237 249
237 250
237 251
237 252
238 239
238 248
238 253
238 254
238 255
239 240
239 241
239 242
239 243
240 241
240 242
240 243
240 244
240 250
240 254
241 242
241 243
241 245
241 251
241 253
242 243
242 247
242 248
242 249
243 246
243 252
243 255
244 245
244 246
244 247
244 250
244 254
245 246
245 247
245 251
245 253
246 247
246 252
246 255
247 248
247 249
248 249
248 253
248 254
248 255
249 250
249 251
249 252
250 251
250 252
250 254
251 252
251 253
252 255
253 254
253 255
254 255
